StudentsNr = 10;
InstructorsNr = 78;
DaysNr = 1;
SlotsPerDay = 15;
AvailabilitySlotsLenght = 15;
RoomNr = 2;
ProgrammNr = 1;
DegreeNr = 3;
RolesNr = 4;
CoursesNr = 7;
InstructorsProgramm = [{1}, {1}, {1}, {1}, {1}, {1}, {1}, {1}, {1}, {1}, {1}, {1}, {1}, {1}, {1}, {1}, {1}, {1}, {1}, {1}, {1}, {1}, {1}, {1}, {1}, {1}, {1}, {1}, {1}, {1}, {1}, {1}, {1}, {1}, {1}, {1}, {1}, {1}, {1}, {1}, {1}, {1}, {1}, {1}, {1}, {1}, {1}, {1}, {1}, {1}, {1}, {1}, {1}, {1}, {1}, {1}, {1}, {1}, {1}, {1}, {1}, {1}, {1}, {1}, {1}, {1}, {1}, {1}, {1}, {1}, {1}, {1}, {1}, {1}, {1}, {1}, {1}, {1}];
InstructorRolesPerProgramm = [|{3, 5, 7, 11, 13, 14, 18, 21, 24, 32, 35, 36, 37, 45, 46, 47, 48, 51, 52, 56, 58, 62, 63, 64, 67, 68, 71}, {4, 6, 7, 9, 13, 16, 20, 21, 22, 26, 30, 31, 37, 42, 43, 46, 47, 54, 55, 57, 58, 59, 61, 63, 66, 69, 71}, {3, 5, 11, 12, 16, 21, 22, 24, 29, 34, 35, 36, 39, 41, 42, 44, 45, 46, 49, 51, 52, 56, 58, 64, 65, 67, 70, 71, 74, 76, 77}, {3, 6, 7, 8, 9, 10, 11, 12, 13, 14, 15, 16, 22, 23, 24, 25, 26, 29, 30, 32, 34, 35, 38, 39, 40, 41, 47, 56, 57, 59, 61, 63, 69, 70, 71, 76, 78}|];
InstructorsAvailability = [|0, |1, |0, |0, |1, |1, |1, |1, |1, |1, |1, |1, |0, |0, |1, |0, |1, |1, |0, |0, |1, |1, |0, |0, |0, |0, |1, |1, |1, |0, |1, |0, |0, |1, |1, |0, |0, |1, |1, |1, |1, |1, |0, |0, |1, |0, |0, |0, |1, |1, |0, |0, |0, |1, |1, |1, |1, |0, |0, |1, |0, |1, |1, |1, |1, |0, |1, |1, |0, |1, |0, |0, |0, |1, |1, |1, |1, |0|];
StudentsProgramm = [1, 1, 1, 1, 1, 1, 1, 1, 1, 1];
StudentsDegree = [3, 2, 3, 3, 2, 1, 3, 2, 1, 2];
StudentsSupervisorId = [44, 15, 62, 45, 4, 31, 55, 59, 37, 12];
StudentsCourseIds = [{1, 3, 4, 5, 6, 7}, {}, {1, 3, 4, 5, 6, 7}, {1, 2, 3, 4, 5, 6}, {}, {1, 3, 4, 7}, {1, 3, 4, 5, 6, 7}, {}, {2, 3, 4, 7}, {}];
StudentsAvailability = [|1, |0, |0, |1, |0, |1, |0, |1, |0, |1|];
TheoryticalMinCard = [0, 0, 0, 0, 0, 0, 0, 0, 0, 0];
CoursesInstructorIds = [{1, 3, 6, 7, 11, 15, 16, 18, 19, 25, 26, 27, 29, 32, 39, 40, 46, 47, 50, 51, 54, 55, 60, 61, 62, 66, 68, 69, 71, 74, 77}, {3, 6, 9, 10, 11, 13, 15, 18, 19, 20, 23, 25, 26, 29, 30, 31, 34, 35, 36, 37, 39, 42, 44, 47, 49, 53, 54, 56, 57, 60, 61, 62, 66, 67, 68, 69, 73, 75, 76, 78}, {4, 5, 6, 7, 8, 9, 10, 11, 12, 15, 16, 17, 19, 20, 22, 25, 28, 30, 31, 32, 33, 46, 48, 51, 53, 54, 55, 56, 57, 58, 60, 62, 64, 67, 68, 69, 70, 72, 73, 76, 77, 78}, {1, 2, 3, 4, 9, 13, 15, 17, 18, 19, 20, 22, 23, 26, 27, 28, 30, 32, 33, 34, 35, 36, 38, 39, 40, 43, 45, 46, 48, 49, 50, 51, 53, 54, 55, 56, 58, 59, 61, 63, 65, 66, 68, 69, 72, 73, 75, 76, 77}, {2, 4, 6, 8, 14, 17, 21, 22, 29, 31, 32, 35, 38, 44, 56, 57, 59, 62, 64, 66, 74, 76}, {3, 4, 6, 7, 8, 9, 13, 15, 16, 17, 19, 20, 21, 22, 23, 24, 26, 27, 29, 33, 34, 35, 36, 39, 42, 43, 44, 45, 48, 49, 51, 52, 54, 55, 59, 60, 61, 62, 63, 64, 65, 68, 69, 70, 71, 72, 76, 77, 78}, {45, 64}];
RolesDemands = [7, 8, 19, 5];
RolesContinuity = [3];
ExamLen = [2, 1, 2, 2, 1, 1, 2, 1, 1, 1];
LunchTsMinLen = 0;
LunchStarts = [7..11];
SupervisorAvailable = 0;
OptimalLunchLenght = [3, 0];
OptimalStartTs = [0, 0];
OptimalFinishTs = [0, 15];
MinimizeRooms = 400;
RolesSoftContinuity = [|1, 2, 3, 4|1, 3, 2, 1|];
SameDegreeInRoom = 0;
Mergeability = 0;
